Optimal - objective value 438.00000000
      0 C_0       37.0000000000001                       0
      1 C_1                    34                       0
      2 C_2                     7                       0
      3 C_3                    18                       0
      4 C_4                     8                       0
      5 C_5       49.0000000000001                       0
      6 C_6                    10                       0
      7 C_7                    25                       0
      8 C_8                    21                       0
     10 x_0_1                   1                    1485
     14 x_1_2                   1                     297
     16 x_2_1                   1                    5940
     19 x_3_1                   1                    3564
     23 x_4_2                   1                    2970
     25 x_5_1                   1                     297
     27 x_6_0                   1                    1782
     30 x_7_0                   1                     594
     35 x_8_2                   1                    1188
     49 d_0_5_1                 1                     297
     50 d_0_5_2                 1                       0
     52 d_0_6_1                 1                       0
     56 d_0_7_2                 1                       0
     60 d_1_2_0                 1                       0
     61 d_1_2_1                 1                       0
     63 d_1_3_0                 1                       0
     64 d_1_3_1                 1                       0
     66 d_1_4_0                 1                       0
     67 d_1_4_1                 1                       0
     70 d_1_5_1                 1                       0
     71 d_1_5_2                 1                       0
     72 d_1_6_0                 1                       0
     73 d_1_6_1                 1                       0
     74 d_1_6_2                 1                       0
     75 d_1_7_0                 1                       0
     76 d_1_7_1                 1                       0
     78 d_1_8_0                 1                       0
     79 d_1_8_1                 1                       0
     81 d_2_3_0                 1                       0
     82 d_2_3_1                 1                    2376
     85 d_2_4_1                 1                       0
     86 d_2_4_2                 1                       0
     87 d_2_5_0                 1                       0
     88 d_2_5_1                 1                       0
     90 d_2_6_0                 1                       0
     91 d_2_6_1                 1                       0
     94 d_2_7_1                 1                       0
     95 d_2_7_2                 1                       0
     96 d_2_8_0                 1                       0
     97 d_2_8_1                 1                       0
     99 d_3_4_0                 1                       0
    100 d_3_4_1                 1                       0
    101 d_3_4_2                 1                       0
    102 d_3_5_0                 1                       0
    103 d_3_5_1                 1                       0
    104 d_3_5_2                 1                       0
    105 d_3_6_0                 1                       0
    107 d_3_6_2                 1                       0
    109 d_3_7_1                 1                       0
    110 d_3_7_2                 1                       0
    111 d_3_8_0                 1                       0
    115 d_4_5_1                 1                       0
    116 d_4_5_2                 1                       0
    117 d_4_6_0                 1                       0
    118 d_4_6_1                 1                       0
    119 d_4_6_2                 1                       0
    124 d_4_8_1                 1                       0
    125 d_4_8_2                 1                     891
    126 d_5_6_0                 1                       0
    127 d_5_6_1                 1                       0
    131 d_5_7_2                 1                       0
    135 d_6_7_0                 1                     594
    137 d_6_7_2                 1                       0
    140 d_6_8_2                 1                       0
    141 d_7_8_0                 1                       0
